Welcome to the CBC MILP Solver 
Version: Trunk
Build Date: Apr 16 2020 

Starting solution of the Linear programming relaxation problem using Primal Simplex

Using Python-MIP package version 1.8.1
Machines:  4 Jobs:  4
Order: 
Job  0 : machine 0 ( 10 ) machine 3 ( 1 ) machine 2 ( 6 ) machine 1 ( 7 ) 
Job  1 : machine 0 ( 1 ) machine 3 ( 7 ) machine 1 ( 5 ) machine 2 ( 8 ) 
Job  2 : machine 3 ( 9 ) machine 2 ( 3 ) machine 1 ( 7 ) machine 0 ( 1 ) 
Job  3 : machine 1 ( 7 ) machine 3 ( 3 ) machine 0 ( 9 ) machine 2 ( 10 ) 
K:  44
Job  0 , e: machine  0 ( 0 ) machine  1 ( 17 ) machine  2 ( 11 ) machine  3 ( 10 ) 
Job  1 , e: machine  0 ( 0 ) machine  1 ( 8 ) machine  2 ( 13 ) machine  3 ( 1 ) 
Job  2 , e: machine  0 ( 19 ) machine  1 ( 12 ) machine  2 ( 9 ) machine  3 ( 0 ) 
Job  3 , e: machine  0 ( 10 ) machine  1 ( 0 ) machine  2 ( 19 ) machine  3 ( 7 ) 
Job  0 , f: machine  0 ( 14 ) machine  1 ( 0 ) machine  2 ( 7 ) machine  3 ( 13 ) 
Job  1 , f: machine  0 ( 20 ) machine  1 ( 8 ) machine  2 ( 0 ) machine  3 ( 13 ) 
Job  2 , f: machine  0 ( 0 ) machine  1 ( 1 ) machine  2 ( 8 ) machine  3 ( 11 ) 
Job  3 , f: machine  0 ( 10 ) machine  1 ( 22 ) machine  2 ( 0 ) machine  3 ( 19 ) 
EST and LST:
Job: 0 Machine: 0 EST: 0 LST: 20
Job: 0 Machine: 1 EST: 17 LST: 37
Job: 0 Machine: 2 EST: 11 LST: 31
Job: 0 Machine: 3 EST: 10 LST: 30
Job: 1 Machine: 0 EST: 0 LST: 23
Job: 1 Machine: 1 EST: 8 LST: 31
Job: 1 Machine: 2 EST: 13 LST: 36
Job: 1 Machine: 3 EST: 1 LST: 24
Job: 2 Machine: 0 EST: 19 LST: 43
Job: 2 Machine: 1 EST: 12 LST: 36
Job: 2 Machine: 2 EST: 9 LST: 33
Job: 2 Machine: 3 EST: 0 LST: 24
Job: 3 Machine: 0 EST: 10 LST: 25
Job: 3 Machine: 1 EST: 0 LST: 15
Job: 3 Machine: 2 EST: 19 LST: 34
Job: 3 Machine: 3 EST: 7 LST: 22
Order:
Job: 0 Machine: 0 = 0 
Job: 0 Machine: 1 = 3 
Job: 0 Machine: 2 = 2 
Job: 0 Machine: 3 = 1 
Job: 1 Machine: 0 = 0 
Job: 1 Machine: 1 = 2 
Job: 1 Machine: 2 = 3 
Job: 1 Machine: 3 = 1 
Job: 2 Machine: 0 = 3 
Job: 2 Machine: 1 = 2 
Job: 2 Machine: 2 = 1 
Job: 2 Machine: 3 = 0 
Job: 3 Machine: 0 = 2 
Job: 3 Machine: 1 = 0 
Job: 3 Machine: 2 = 3 
Job: 3 Machine: 3 = 1 
Distances:
Job 0, Machine 0 -> Machine 3: distance 10
Job 0, Machine 0 -> Machine 2: distance 11
Job 0, Machine 0 -> Machine 1: distance 17
Job 0, Machine 3 -> Machine 2: distance 1
Job 0, Machine 3 -> Machine 1: distance 7
Job 0, Machine 2 -> Machine 1: distance 6
Job 1, Machine 0 -> Machine 3: distance 1
Job 1, Machine 0 -> Machine 1: distance 8
Job 1, Machine 0 -> Machine 2: distance 13
Job 1, Machine 3 -> Machine 1: distance 7
Job 1, Machine 3 -> Machine 2: distance 12
Job 1, Machine 1 -> Machine 2: distance 5
Job 2, Machine 3 -> Machine 2: distance 9
Job 2, Machine 3 -> Machine 1: distance 12
Job 2, Machine 3 -> Machine 0: distance 19
Job 2, Machine 2 -> Machine 1: distance 3
Job 2, Machine 2 -> Machine 0: distance 10
Job 2, Machine 1 -> Machine 0: distance 7
Job 3, Machine 1 -> Machine 3: distance 7
Job 3, Machine 1 -> Machine 0: distance 10
Job 3, Machine 1 -> Machine 2: distance 19
Job 3, Machine 3 -> Machine 0: distance 3
Job 3, Machine 3 -> Machine 2: distance 12
Job 3, Machine 0 -> Machine 2: distance 9
McCormic linearization
[(1, 2), (3, 2), (0, 0), (3, 3), (3, 1), (2, 0), (1, 1), (2, 3), (2, 2), (1, 0), (0, 2)]
obj:  0.6000000000000001
solutions:  1
+ x(0,0) + 0.10000000000000002x(1,0) 
C:  29.0
x(0,0) = 0.73	 x(0,1) = 22.00	 x(0,2) = 11.73	 x(0,3) = 10.73	 
x(1,0) = 2.73	 x(1,1) = 10.73	 x(1,2) = 15.73	 x(1,3) = 3.73	 
x(2,0) = 22.73	 x(2,1) = 15.73	 x(2,2) = 12.73	 x(2,3) = 3.73	 
x(3,0) = 10.00	 x(3,1) = 0.00	 x(3,2) = 19.00	 x(3,3) = 7.00	 
y(0,1,0) = 0.13	 y(1,0,0) = 0.87	 
y(0,2,0) = 0.64	 y(2,0,0) = 0.36	 
y(0,3,0) = 0.96	 y(3,0,0) = 0.04	 
y(1,2,0) = 0.48	 y(2,1,0) = 0.52	 
y(1,3,0) = 0.74	 y(3,1,0) = 0.26	 
y(2,3,0) = 0.00	 y(3,2,0) = 1.00	 
y(0,1,1) = 0.14	 y(1,0,1) = 0.86	 
y(0,2,1) = 0.03	 y(2,0,1) = 0.97	 
y(0,3,1) = 0.00	 y(3,0,1) = 1.00	 
y(1,2,1) = 0.34	 y(2,1,1) = 0.66	 
y(1,3,1) = 0.16	 y(3,1,1) = 0.84	 
y(2,3,1) = 0.00	 y(3,2,1) = 1.00	 
y(0,1,2) = 0.36	 y(1,0,2) = 0.64	 
y(0,2,2) = 0.39	 y(2,0,2) = 0.61	 
y(0,3,2) = 1.00	 y(3,0,2) = 0.00	 
y(1,2,2) = 0.00	 y(2,1,2) = 1.00	 
y(1,3,2) = 0.43	 y(3,1,2) = 0.57	 
y(2,3,2) = 0.85	 y(3,2,2) = 0.15	 
y(0,1,3) = 0.00	 y(1,0,3) = 1.00	 
y(0,2,3) = 0.09	 y(2,0,3) = 0.91	 
y(0,3,3) = 0.04	 y(3,0,3) = 0.96	 
y(1,2,3) = 0.28	 y(2,1,3) = 0.72	 
y(1,3,3) = 0.26	 y(3,1,3) = 0.74	 
y(2,3,3) = 0.25	 y(3,2,3) = 0.75	 
obj:  0.6684535775444869
solutions:  1
+ 0.06306306306306306x(1,3) + 0.02702702702702704x(3,3) + 0.06552006552006552x(2,3) 
[(1, 2), (3, 2), (0, 0), (1, 3), (3, 3), (2, 1), (2, 0), (1, 1), (2, 3), (2, 2), (1, 0), (0, 2)]
cliques:  1 mip: 97
C:  29.0
x(0,0) = 0.39	 x(0,1) = 22.00	 x(0,2) = 11.39	 x(0,3) = 10.39	 
x(1,0) = 6.11	 x(1,1) = 14.11	 x(1,2) = 19.11	 x(1,3) = 7.11	 
x(2,0) = 24.53	 x(2,1) = 17.53	 x(2,2) = 14.53	 x(2,3) = 5.53	 
x(3,0) = 10.00	 x(3,1) = 0.00	 x(3,2) = 19.00	 x(3,3) = 7.00	 
y(0,1,0) = 0.28	 y(1,0,0) = 0.72	 
y(0,2,0) = 0.57	 y(2,0,0) = 0.43	 
y(0,3,0) = 0.98	 y(3,0,0) = 0.02	 
y(1,2,0) = 0.44	 y(2,1,0) = 0.56	 
y(1,3,0) = 0.88	 y(3,1,0) = 0.12	 
y(2,3,0) = 0.00	 y(3,2,0) = 1.00	 
y(0,1,1) = 0.12	 y(1,0,1) = 0.88	 
y(0,2,1) = 0.10	 y(2,0,1) = 0.90	 
y(0,3,1) = 0.00	 y(3,0,1) = 1.00	 
y(1,2,1) = 0.30	 y(2,1,1) = 0.70	 
y(1,3,1) = 0.30	 y(3,1,1) = 0.70	 
y(2,3,1) = 0.00	 y(3,2,1) = 1.00	 
y(0,1,2) = 0.64	 y(1,0,2) = 0.36	 
y(0,2,2) = 0.53	 y(2,0,2) = 0.47	 
y(0,3,2) = 1.00	 y(3,0,2) = 0.00	 
y(1,2,2) = 0.44	 y(2,1,2) = 0.56	 
y(1,3,2) = 0.32	 y(3,1,2) = 0.68	 
y(2,3,2) = 0.93	 y(3,2,2) = 0.07	 
y(0,1,3) = 0.47	 y(1,0,3) = 0.53	 
y(0,2,3) = 0.18	 y(2,0,3) = 0.82	 
y(0,3,3) = 0.02	 y(3,0,3) = 0.98	 
y(1,2,3) = 0.23	 y(2,1,3) = 0.77	 
y(1,3,3) = 0.12	 y(3,1,3) = 0.88	 
y(2,3,3) = 0.18	 y(3,2,3) = 0.82	 
obj:  0.8461614981206556
solutions:  1
+ 0.014930399640772337x(1,2) + 0.023462056578356535x(3,2) + 0.010103277952402335x(0,2) 
[(1, 2), (3, 2), (1, 3), (0, 0), (2, 1), (2, 0), (1, 1), (2, 2), (1, 0), (0, 2), (0, 3)]
cliques:  1 mip: 173
C:  30.629629629629633
x(0,0) = 1.63	 x(0,1) = 23.63	 x(0,2) = 17.63	 x(0,3) = 11.63	 
x(1,0) = 6.35	 x(1,1) = 17.63	 x(1,2) = 22.63	 x(1,3) = 7.35	 
x(2,0) = 23.63	 x(2,1) = 16.63	 x(2,2) = 13.63	 x(2,3) = 4.63	 
x(3,0) = 11.63	 x(3,1) = 1.63	 x(3,2) = 20.63	 x(3,3) = 8.63	 
y(0,1,0) = 0.24	 y(1,0,0) = 0.76	 
y(0,2,0) = 0.52	 y(2,0,0) = 0.48	 
y(0,3,0) = 1.00	 y(3,0,0) = 0.00	 
y(1,2,0) = 0.42	 y(2,1,0) = 0.58	 
y(1,3,0) = 0.82	 y(3,1,0) = 0.18	 
y(2,3,0) = 0.00	 y(3,2,0) = 1.00	 
y(0,1,1) = 0.13	 y(1,0,1) = 0.87	 
y(0,2,1) = 0.00	 y(2,0,1) = 1.00	 
y(0,3,1) = 0.00	 y(3,0,1) = 1.00	 
y(1,2,1) = 0.17	 y(2,1,1) = 0.83	 
y(1,3,1) = 0.37	 y(3,1,1) = 0.63	 
y(2,3,1) = 0.00	 y(3,2,1) = 1.00	 
y(0,1,2) = 0.76	 y(1,0,2) = 0.24	 
y(0,2,2) = 0.21	 y(2,0,2) = 0.79	 
y(0,3,2) = 0.72	 y(3,0,2) = 0.28	 
y(1,2,2) = 0.27	 y(2,1,2) = 0.73	 
y(1,3,2) = 0.26	 y(3,1,2) = 0.74	 
y(2,3,2) = 0.82	 y(3,2,2) = 0.18	 
y(0,1,3) = 0.28	 y(1,0,3) = 0.72	 
y(0,2,3) = 0.09	 y(2,0,3) = 0.91	 
y(0,3,3) = 0.00	 y(3,0,3) = 1.00	 
y(1,2,3) = 0.20	 y(2,1,3) = 0.80	 
y(1,3,3) = 0.18	 y(3,1,3) = 0.82	 
y(2,3,3) = 0.28	 y(3,2,3) = 0.72	 
obj:  0.9454631787965122
solutions:  1
+ 0.05384615384615385x(1,3) + 0.02307692307692308x(3,3) + 0.056410256410256404x(2,3) + 0.007692307692307694x(0,3) 
[(1, 2), (3, 2), (0, 0), (1, 3), (3, 3), (0, 2), (3, 1), (2, 0), (2, 3), (2, 2), (1, 0), (1, 1), (0, 3)]
cliques:  1 mip: 122
C:  33.02274412855377
x(0,0) = 0.49	 x(0,1) = 26.02	 x(0,2) = 20.02	 x(0,3) = 10.49	 
x(1,0) = 5.11	 x(1,1) = 18.57	 x(1,2) = 23.57	 x(1,3) = 11.57	 
x(2,0) = 26.00	 x(2,1) = 19.00	 x(2,2) = 16.00	 x(2,3) = 7.00	 
x(3,0) = 10.00	 x(3,1) = 0.00	 x(3,2) = 19.00	 x(3,3) = 7.00	 
y(0,1,0) = 0.23	 y(1,0,0) = 0.77	 
y(0,2,0) = 0.77	 y(2,0,0) = 0.23	 
y(0,3,0) = 0.98	 y(3,0,0) = 0.02	 
y(1,2,0) = 0.53	 y(2,1,0) = 0.47	 
y(1,3,0) = 0.84	 y(3,1,0) = 0.16	 
y(2,3,0) = 0.00	 y(3,2,0) = 1.00	 
y(0,1,1) = 0.32	 y(1,0,1) = 0.68	 
y(0,2,1) = 0.18	 y(2,0,1) = 0.82	 
y(0,3,1) = 0.00	 y(3,0,1) = 1.00	 
y(1,2,1) = 0.21	 y(2,1,1) = 0.79	 
y(1,3,1) = 0.27	 y(3,1,1) = 0.73	 
y(2,3,1) = 0.00	 y(3,2,1) = 1.00	 
y(0,1,2) = 0.39	 y(1,0,2) = 0.61	 
y(0,2,2) = 0.00	 y(2,0,2) = 1.00	 
y(0,3,2) = 0.43	 y(3,0,2) = 0.57	 
y(1,2,2) = 0.23	 y(2,1,2) = 0.77	 
y(1,3,2) = 0.50	 y(3,1,2) = 0.50	 
y(2,3,2) = 1.00	 y(3,2,2) = 0.00	 
y(0,1,3) = 0.38	 y(1,0,3) = 0.62	 
y(0,2,3) = 0.24	 y(2,0,3) = 0.76	 
y(0,3,3) = 0.02	 y(3,0,3) = 0.98	 
y(1,2,3) = 0.14	 y(2,1,3) = 0.86	 
y(1,3,3) = 0.00	 y(3,1,3) = 1.00	 
y(2,3,3) = 0.12	 y(3,2,3) = 0.88	 
obj:  0.9700059414460251
solutions:  1
+ 0.005524861878453046x(1,2) + 0.04419889502762431x(3,2) 
[(1, 2), (0, 1), (3, 2), (1, 3), (3, 1), (2, 0), (1, 1), (2, 3), (1, 0), (0, 2), (0, 3)]
cliques:  1 mip: 187
C:  34.00000000000001
x(0,0) = 0.55	 x(0,1) = 27.00	 x(0,2) = 21.00	 x(0,3) = 10.55	 
x(1,0) = 4.51	 x(1,1) = 12.51	 x(1,2) = 17.51	 x(1,3) = 5.51	 
x(2,0) = 26.94	 x(2,1) = 19.94	 x(2,2) = 16.94	 x(2,3) = 7.94	 
x(3,0) = 10.55	 x(3,1) = 0.55	 x(3,2) = 23.29	 x(3,3) = 7.55	 
y(0,1,0) = 0.21	 y(1,0,0) = 0.79	 
y(0,2,0) = 0.85	 y(2,0,0) = 0.15	 
y(0,3,0) = 1.00	 y(3,0,0) = 0.00	 
y(1,2,0) = 0.67	 y(2,1,0) = 0.33	 
y(1,3,0) = 0.79	 y(3,1,0) = 0.21	 
y(2,3,0) = 0.00	 y(3,2,0) = 1.00	 
y(0,1,1) = 0.14	 y(1,0,1) = 0.86	 
y(0,2,1) = 0.13	 y(2,0,1) = 0.87	 
y(0,3,1) = 0.00	 y(3,0,1) = 1.00	 
y(1,2,1) = 0.41	 y(2,1,1) = 0.59	 
y(1,3,1) = 0.21	 y(3,1,1) = 0.79	 
y(2,3,1) = 0.00	 y(3,2,1) = 1.00	 
y(0,1,2) = 0.14	 y(1,0,2) = 0.86	 
y(0,2,2) = 0.05	 y(2,0,2) = 0.95	 
y(0,3,2) = 0.78	 y(3,0,2) = 0.22	 
y(1,2,2) = 0.41	 y(2,1,2) = 0.59	 
y(1,3,2) = 0.91	 y(3,1,2) = 0.09	 
y(2,3,2) = 0.69	 y(3,2,2) = 0.31	 
y(0,1,3) = 0.26	 y(1,0,3) = 0.74	 
y(0,2,3) = 0.28	 y(2,0,3) = 0.72	 
y(0,3,3) = 0.00	 y(3,0,3) = 1.00	 
y(1,2,3) = 0.36	 y(2,1,3) = 0.64	 
y(1,3,3) = 0.21	 y(3,1,3) = 0.79	 
y(2,3,3) = 0.10	 y(3,2,3) = 0.90	 
obj:  1.0082178016036223
erro
[(1, 2), (3, 2), (1, 3), (0, 2), (2, 1), (2, 0), (2, 3), (2, 2), (1, 0), (1, 1), (0, 3)]
cliques:  0 mip: 196
C:  34.0
x(0,0) = 1.00	 x(0,1) = 27.00	 x(0,2) = 21.00	 x(0,3) = 14.02	 
x(1,0) = 0.00	 x(1,1) = 10.05	 x(1,2) = 15.05	 x(1,3) = 1.00	 
x(2,0) = 30.71	 x(2,1) = 23.71	 x(2,2) = 20.71	 x(2,3) = 11.71	 
x(3,0) = 13.70	 x(3,1) = 0.70	 x(3,2) = 24.00	 x(3,3) = 7.70	 
y(0,1,0) = 0.00	 y(1,0,0) = 1.00	 
y(0,2,0) = 0.91	 y(2,0,0) = 0.09	 
y(0,3,0) = 1.00	 y(3,0,0) = 0.00	 
y(1,2,0) = 0.94	 y(2,1,0) = 0.06	 
y(1,3,0) = 0.67	 y(3,1,0) = 0.33	 
y(2,3,0) = 0.00	 y(3,2,0) = 1.00	 
y(0,1,1) = 0.00	 y(1,0,1) = 1.00	 
y(0,2,1) = 0.22	 y(2,0,1) = 0.78	 
y(0,3,1) = 0.00	 y(3,0,1) = 1.00	 
y(1,2,1) = 0.99	 y(2,1,1) = 0.01	 
y(1,3,1) = 0.10	 y(3,1,1) = 0.90	 
y(2,3,1) = 0.00	 y(3,2,1) = 1.00	 
y(0,1,2) = 0.46	 y(1,0,2) = 0.54	 
y(0,2,2) = 0.14	 y(2,0,2) = 0.86	 
y(0,3,2) = 0.83	 y(3,0,2) = 0.17	 
y(1,2,2) = 0.43	 y(2,1,2) = 0.57	 
y(1,3,2) = 1.00	 y(3,1,2) = 0.00	 
y(2,3,2) = 0.92	 y(3,2,2) = 0.08	 
y(0,1,3) = 0.05	 y(1,0,3) = 0.95	 
y(0,2,3) = 0.29	 y(2,0,3) = 0.71	 
y(0,3,3) = 0.17	 y(3,0,3) = 0.83	 
y(1,2,3) = 0.87	 y(2,1,3) = 0.13	 
y(1,3,3) = 0.40	 y(3,1,3) = 0.60	 
y(2,3,3) = 0.00	 y(3,2,3) = 1.00	 
obj:  0.9022136892480661
solutions:  1
+ 0.012573344509639563x(1,2) + 0.02137468566638725x(3,2) + 0.014249790444258168x(1,3) + 0.018021793797150045x(3,3) + 0.0033528918692372262x(0,3) 
[(1, 2), (0, 1), (3, 2), (1, 3), (3, 3), (3, 0), (2, 1), (2, 3), (2, 2), (1, 0), (0, 2), (0, 3)]
cliques:  1 mip: 187
C:  34.09305606793124
x(0,0) = 1.00	 x(0,1) = 27.09	 x(0,2) = 19.25	 x(0,3) = 13.06	 
x(1,0) = 0.00	 x(1,1) = 11.09	 x(1,2) = 16.09	 x(1,3) = 4.09	 
x(2,0) = 29.82	 x(2,1) = 22.82	 x(2,2) = 19.82	 x(2,3) = 10.70	 
x(3,0) = 13.02	 x(3,1) = 3.02	 x(3,2) = 24.09	 x(3,3) = 10.02	 
y(0,1,0) = 0.63	 y(1,0,0) = 0.37	 
y(0,2,0) = 0.81	 y(2,0,0) = 0.19	 
y(0,3,0) = 0.95	 y(3,0,0) = 0.05	 
y(1,2,0) = 0.86	 y(2,1,0) = 0.14	 
y(1,3,0) = 0.71	 y(3,1,0) = 0.29	 
y(2,3,0) = 0.00	 y(3,2,0) = 1.00	 
y(0,1,1) = 0.00	 y(1,0,1) = 1.00	 
y(0,2,1) = 0.23	 y(2,0,1) = 0.77	 
y(0,3,1) = 0.00	 y(3,0,1) = 1.00	 
y(1,2,1) = 1.00	 y(2,1,1) = 0.00	 
y(1,3,1) = 0.04	 y(3,1,1) = 0.96	 
y(2,3,1) = 0.00	 y(3,2,1) = 1.00	 
y(0,1,2) = 0.62	 y(1,0,2) = 0.38	 
y(0,2,2) = 0.15	 y(2,0,2) = 0.85	 
y(0,3,2) = 0.62	 y(3,0,2) = 0.38	 
y(1,2,2) = 0.42	 y(2,1,2) = 0.58	 
y(1,3,2) = 1.00	 y(3,1,2) = -0.00	 
y(2,3,2) = 0.96	 y(3,2,2) = 0.04	 
y(0,1,3) = 0.00	 y(1,0,3) = 1.00	 
y(0,2,3) = 0.29	 y(2,0,3) = 0.71	 
y(0,3,3) = 0.00	 y(3,0,3) = 1.00	 
y(1,2,3) = 0.75	 y(2,1,3) = 0.25	 
y(1,3,3) = 0.66	 y(3,1,3) = 0.34	 
y(2,3,3) = 0.09	 y(3,2,3) = 0.91	 
obj:  0.9883740638150678
solutions:  1
+ 0.013922692418413547x(1,2) + 0.022624375179922017x(3,2) + 0.002015126534244068x(1,3) + 0.0027348145821883773x(3,3) + 0.00934285938604067x(0,2) + 0.0002878752191777138x(0,3) 
[(1, 2), (3, 2), (0, 0), (1, 3), (3, 3), (3, 0), (2, 3), (2, 2), (1, 0), (0, 2), (0, 3)]
cliques:  1 mip: 0
C:  34.097525656449854
x(0,0) = 0.89	 x(0,1) = 27.10	 x(0,2) = 19.69	 x(0,3) = 18.69	 
x(1,0) = 1.46	 x(1,1) = 11.10	 x(1,2) = 16.10	 x(1,3) = 4.10	 
x(2,0) = 25.68	 x(2,1) = 18.68	 x(2,2) = 15.68	 x(2,3) = 6.45	 
x(3,0) = 15.10	 x(3,1) = 4.10	 x(3,2) = 24.10	 x(3,3) = 12.10	 
y(0,1,0) = 0.69	 y(1,0,0) = 0.31	 
y(0,2,0) = 0.67	 y(2,0,0) = 0.33	 
y(0,3,0) = 0.92	 y(3,0,0) = 0.08	 
y(1,2,0) = 0.78	 y(2,1,0) = 0.22	 
y(1,3,0) = 0.70	 y(3,1,0) = 0.30	 
y(2,3,0) = 0.00	 y(3,2,0) = 1.00	 
y(0,1,1) = 0.00	 y(1,0,1) = 1.00	 
y(0,2,1) = 0.18	 y(2,0,1) = 0.82	 
y(0,3,1) = 0.00	 y(3,0,1) = 1.00	 
y(1,2,1) = 1.00	 y(2,1,1) = 0.00	 
y(1,3,1) = 0.00	 y(3,1,1) = 1.00	 
y(2,3,1) = 0.00	 y(3,2,1) = 1.00	 
y(0,1,2) = 0.60	 y(1,0,2) = 0.40	 
y(0,2,2) = 0.04	 y(2,0,2) = 0.96	 
y(0,3,2) = 0.44	 y(3,0,2) = 0.56	 
y(1,2,2) = 0.31	 y(2,1,2) = 0.69	 
y(1,3,2) = 1.00	 y(3,1,2) = 0.00	 
y(2,3,2) = 0.88	 y(3,2,2) = 0.12	 
y(0,1,3) = 0.00	 y(1,0,3) = 1.00	 
y(0,2,3) = 0.00	 y(2,0,3) = 1.00	 
y(0,3,3) = 0.18	 y(3,0,3) = 0.82	 
y(1,2,3) = 0.59	 y(2,1,3) = 0.41	 
y(1,3,3) = 0.55	 y(3,1,3) = 0.45	 
y(2,3,3) = 0.35	 y(3,2,3) = 0.65	 
obj:  0.9959770691592736
solutions:  1
+ 0.01113353188939605x(1,2) + 0.017495550111908054x(3,2) + 0.016037220450099615x(1,3) + 0.006873094478614124x(3,3) + 0.01517808364027286x(2,3) + 0.0075339689477116065x(0,2) 
[(1, 2), (3, 2), (1, 3), (0, 0), (3, 3), (2, 0), (2, 3), (2, 2), (1, 0), (0, 2)]
cliques:  1 mip: 0
C:  34.097525656449854
x(0,0) = 0.89	 x(0,1) = 27.10	 x(0,2) = 19.69	 x(0,3) = 18.69	 
x(1,0) = 1.63	 x(1,1) = 11.10	 x(1,2) = 16.10	 x(1,3) = 4.10	 
x(2,0) = 25.94	 x(2,1) = 18.94	 x(2,2) = 15.94	 x(2,3) = 6.72	 
x(3,0) = 15.10	 x(3,1) = 4.10	 x(3,2) = 24.10	 x(3,3) = 12.10	 
y(0,1,0) = 0.69	 y(1,0,0) = 0.31	 
y(0,2,0) = 0.67	 y(2,0,0) = 0.33	 
y(0,3,0) = 0.91	 y(3,0,0) = 0.09	 
y(1,2,0) = 0.78	 y(2,1,0) = 0.22	 
y(1,3,0) = 0.70	 y(3,1,0) = 0.30	 
y(2,3,0) = 0.00	 y(3,2,0) = 1.00	 
y(0,1,1) = 0.00	 y(1,0,1) = 1.00	 
y(0,2,1) = 0.18	 y(2,0,1) = 0.82	 
y(0,3,1) = 0.00	 y(3,0,1) = 1.00	 
y(1,2,1) = 1.00	 y(2,1,1) = 0.00	 
y(1,3,1) = 0.00	 y(3,1,1) = 1.00	 
y(2,3,1) = 0.00	 y(3,2,1) = 1.00	 
y(0,1,2) = 0.60	 y(1,0,2) = 0.40	 
y(0,2,2) = 0.05	 y(2,0,2) = 0.95	 
y(0,3,2) = 0.44	 y(3,0,2) = 0.56	 
y(1,2,2) = 0.33	 y(2,1,2) = 0.67	 
y(1,3,2) = 1.00	 y(3,1,2) = 0.00	 
y(2,3,2) = 0.88	 y(3,2,2) = 0.12	 
y(0,1,3) = 0.00	 y(1,0,3) = 1.00	 
y(0,2,3) = 0.00	 y(2,0,3) = 1.00	 
y(0,3,3) = 0.18	 y(3,0,3) = 0.82	 
y(1,2,3) = 0.59	 y(2,1,3) = 0.41	 
y(1,3,3) = 0.50	 y(3,1,3) = 0.50	 
y(2,3,3) = 0.34	 y(3,2,3) = 0.66	 
obj:  0.9982875886423757
solutions:  1
+ 0.014313247825619069x(1,2) + 0.022492246583115647x(3,2) + 0.00169580516503118x(1,3) + 0.0023317321019178726x(3,3) + 0.009685656423351242x(0,2) 
[(1, 2), (3, 2), (1, 3), (0, 0), (3, 3), (2, 0), (2, 3), (2, 2), (1, 0), (0, 2)]
cliques:  1 mip: 0
C:  34.103563105654565
x(0,0) = 0.88	 x(0,1) = 27.10	 x(0,2) = 19.81	 x(0,3) = 18.81	 
x(1,0) = 1.78	 x(1,1) = 11.18	 x(1,2) = 16.18	 x(1,3) = 4.18	 
x(2,0) = 25.87	 x(2,1) = 18.87	 x(2,2) = 15.87	 x(2,3) = 6.65	 
x(3,0) = 15.07	 x(3,1) = 4.18	 x(3,2) = 24.07	 x(3,3) = 12.07	 
y(0,1,0) = 0.70	 y(1,0,0) = 0.30	 
y(0,2,0) = 0.66	 y(2,0,0) = 0.34	 
y(0,3,0) = 0.90	 y(3,0,0) = 0.10	 
y(1,2,0) = 0.77	 y(2,1,0) = 0.23	 
y(1,3,0) = 0.70	 y(3,1,0) = 0.30	 
y(2,3,0) = 0.00	 y(3,2,0) = 1.00	 
y(0,1,1) = 0.00	 y(1,0,1) = 1.00	 
y(0,2,1) = 0.18	 y(2,0,1) = 0.82	 
y(0,3,1) = 0.00	 y(3,0,1) = 1.00	 
y(1,2,1) = 1.00	 y(2,1,1) = 0.00	 
y(1,3,1) = 0.00	 y(3,1,1) = 1.00	 
y(2,3,1) = 0.00	 y(3,2,1) = 1.00	 
y(0,1,2) = 0.60	 y(1,0,2) = 0.40	 
y(0,2,2) = 0.05	 y(2,0,2) = 0.95	 
y(0,3,2) = 0.43	 y(3,0,2) = 0.57	 
y(1,2,2) = 0.33	 y(2,1,2) = 0.67	 
y(1,3,2) = 1.00	 y(3,1,2) = 0.00	 
y(2,3,2) = 0.88	 y(3,2,2) = 0.12	 
y(0,1,3) = 0.00	 y(1,0,3) = 1.00	 
y(0,2,3) = 0.00	 y(2,0,3) = 1.00	 
y(0,3,3) = 0.19	 y(3,0,3) = 0.81	 
y(1,2,3) = 0.58	 y(2,1,3) = 0.42	 
y(1,3,3) = 0.46	 y(3,1,3) = 0.54	 
y(2,3,3) = 0.34	 y(3,2,3) = 0.66	 
obj:  1.0
erro
[(1, 2), (3, 2), (1, 3), (0, 0), (3, 3), (2, 0), (2, 3), (2, 2), (1, 0), (0, 2)]
cliques:  0 mip: 0
iterações: 10 cortes cliques encontrados: 9 mip: 1008 objective:  34.103563105654565
Coin0506I Presolve 157 (-171) rows, 90 (-71) columns and 490 (-260) elements
Clp1000I sum of infeasibilities 1.79124e-08 - average 1.14092e-10, 0 fixed columns
Coin0506I Presolve 157 (0) rows, 90 (0) columns and 490 (0) elements
Clp0029I End of values pass after 90 iterations
Clp0000I Optimal - objective value 29
Clp0000I Optimal - objective value 29
Coin0511I After Postsolve, objective 29, infeasibilities - dual 0 (0), primal 0 (0)
Clp0000I Optimal - objective value 29
Clp0000I Optimal - objective value 29
Clp0000I Optimal - objective value 29
Coin0511I After Postsolve, objective 29, infeasibilities - dual 0 (0), primal 0 (0)
Clp0032I Optimal objective 29 - 0 iterations time 0.012, Presolve 0.00, Idiot 0.01
Coin3009W Conflict graph built in 0.000 seconds, density: 0.070%
